(set-logic QF_NRA)
(set-info :source |Benchmarks generated from hycomp (https://es-static.fbk.eu/tools/hycomp/). BMC instances of non-linear hybrid automata taken from: Alessandro Cimatti, Sergio Mover, Stefano Tonetta, A quantifier-free SMT encoding of non-linear hybrid automata, FMCAD 2012 and Alessandro Cimatti, Sergio Mover, Stefano Tonetta, Quantier-free encoding of invariants for Hybrid Systems, Formal Methods in System Design. This instance solves a BMC problem of depth 0 and uses the quantifier free encoding encoding. Contacts: Sergio Mover (mover@fbk.eu), Stefano Tonetta (tonettas@fbk.eu), Alessandro Cimatti (cimatti@fbk.eu).|)
(set-info :smt-lib-version 2.0)
(set-info :category "industrial")
(set-info :status unsat)
;; MathSAT API call trace
;; generated on Mon Mar 19 10:47:10 2012
(declare-fun m.delta__AT0 () Real)
(declare-fun m.EVENT.0__AT0 () Bool)
(declare-fun m.time__AT0 () Real)
(declare-fun m.EVENT.1__AT0 () Bool)
(declare-fun m.speed_y__AT0 () Real)
(declare-fun m.event_is_timed__AT0 () Bool)
(declare-fun m.speed_x__AT0 () Real)
(declare-fun m.x__AT0 () Real)
(declare-fun m.y__AT0 () Real)
(assert (let ((.def_287 (* m.speed_y__AT0 m.delta__AT0)))
(let ((.def_288 (* 10.0 .def_287)))
(let ((.def_61 (* m.delta__AT0 m.delta__AT0)))
(let ((.def_286 (* (- 49.0) .def_61)))
(let ((.def_289 (+ .def_286 .def_288)))
(let ((.def_290 (* 10.0 m.y__AT0)))
(let ((.def_292 (+ .def_290 .def_289)))
(let ((.def_297 (<= 0.0 .def_292)))
(let ((.def_39 (<= 0.0 m.y__AT0)))
(let ((.def_298 (and .def_39 .def_297)))
(let ((.def_197 (* (- 49.0) m.delta__AT0)))
(let ((.def_198 (* 5.0 m.speed_y__AT0)))
(let ((.def_200 (+ .def_198 .def_197)))
(let ((.def_204 (<= .def_200 0.0 )))
(let ((.def_203 (<= m.speed_y__AT0 0.0 )))
(let ((.def_205 (and .def_203 .def_204)))
(let ((.def_201 (<= 0.0 .def_200)))
(let ((.def_21 (<= 0.0 m.speed_y__AT0)))
(let ((.def_202 (and .def_21 .def_201)))
(let ((.def_206 (or .def_202 .def_205)))
(let ((.def_299 (and .def_206 .def_298)))
(let ((.def_293 (<= .def_292 1000.0 )))
(let ((.def_38 (<= m.y__AT0 100.0 )))
(let ((.def_294 (and .def_38 .def_293)))
(let ((.def_295 (and .def_206 .def_294)))
(let ((.def_71 (* (- (/ 49 10)) m.speed_y__AT0)))
(let ((.def_129 (* 3.0 .def_71)))
(let ((.def_226 (* (- 1.0) .def_129)))
(let ((.def_254 (* 2.0 .def_226)))
(let ((.def_268 (* (- 1.0) .def_254)))
(let ((.def_269 (* m.delta__AT0 .def_268)))
(let ((.def_270 (* (- 50.0) .def_269)))
(let ((.def_92 (* m.speed_x__AT0 m.speed_x__AT0)))
(let ((.def_172 (* (- 50.0) .def_92)))
(let ((.def_275 (+ .def_172 .def_270)))
(let ((.def_77 (* m.speed_y__AT0 m.speed_y__AT0)))
(let ((.def_170 (* (- 50.0) .def_77)))
(let ((.def_276 (+ .def_170 .def_275)))
(let ((.def_176 (* (- 7203.0) .def_61)))
(let ((.def_277 (+ .def_176 .def_276)))
(let ((.def_179 (* 490.0 m.y__AT0)))
(let ((.def_278 (+ .def_179 .def_277)))
(let ((.def_279 (<= .def_278 0.0 )))
(let ((.def_189 (* (- 5.0) .def_92)))
(let ((.def_188 (* (- 5.0) .def_77)))
(let ((.def_190 (+ .def_188 .def_189)))
(let ((.def_191 (* 49.0 m.y__AT0)))
(let ((.def_193 (+ .def_191 .def_190)))
(let ((.def_194 (<= .def_193 0.0 )))
(let ((.def_280 (and .def_194 .def_279)))
(let ((.def_281 (and .def_206 .def_280)))
(let ((.def_255 (* m.delta__AT0 .def_254)))
(let ((.def_256 (* 50.0 .def_255)))
(let ((.def_261 (+ .def_172 .def_256)))
(let ((.def_262 (+ .def_170 .def_261)))
(let ((.def_263 (+ .def_176 .def_262)))
(let ((.def_264 (+ .def_179 .def_263)))
(let ((.def_265 (<= 0.0 .def_264)))
(let ((.def_220 (<= 0.0 .def_193)))
(let ((.def_266 (and .def_220 .def_265)))
(let ((.def_267 (and .def_206 .def_266)))
(let ((.def_282 (or .def_267 .def_281)))
(let ((.def_145 (* 2.0 .def_92)))
(let ((.def_239 (* (- 1.0) .def_145)))
(let ((.def_240 (* m.delta__AT0 .def_239)))
(let ((.def_241 (* 25.0 .def_240)))
(let ((.def_82 (* (- (/ 49 10)) m.y__AT0)))
(let ((.def_141 (* 2.0 .def_82)))
(let ((.def_234 (* (- 1.0) .def_141)))
(let ((.def_235 (* m.delta__AT0 .def_234)))
(let ((.def_236 (* 50.0 .def_235)))
(let ((.def_245 (+ .def_236 .def_241)))
(let ((.def_135 (* 2.0 .def_77)))
(let ((.def_230 (* (- 1.0) .def_135)))
(let ((.def_231 (* m.delta__AT0 .def_230)))
(let ((.def_232 (* 25.0 .def_231)))
(let ((.def_246 (+ .def_232 .def_245)))
(let ((.def_227 (* .def_61 .def_226)))
(let ((.def_228 (* 50.0 .def_227)))
(let ((.def_247 (+ .def_228 .def_246)))
(let ((.def_96 (* m.x__AT0 m.speed_x__AT0)))
(let ((.def_153 (* (- 50.0) .def_96)))
(let ((.def_248 (+ .def_153 .def_247)))
(let ((.def_86 (* m.y__AT0 m.speed_y__AT0)))
(let ((.def_151 (* (- 50.0) .def_86)))
(let ((.def_249 (+ .def_151 .def_248)))
(let ((.def_62 (* m.delta__AT0 .def_61)))
(let ((.def_149 (* (- 2401.0) .def_62)))
(let ((.def_250 (+ .def_149 .def_249)))
(let ((.def_156 (* 1000.0 m.speed_x__AT0)))
(let ((.def_251 (+ .def_156 .def_250)))
(let ((.def_252 (<= 0.0 .def_251)))
(let ((.def_122 (* (- 1.0) .def_96)))
(let ((.def_121 (* (- 1.0) .def_86)))
(let ((.def_123 (+ .def_121 .def_122)))
(let ((.def_124 (* 20.0 m.speed_x__AT0)))
(let ((.def_126 (+ .def_124 .def_123)))
(let ((.def_225 (<= 0.0 .def_126)))
(let ((.def_253 (and .def_225 .def_252)))
(let ((.def_283 (and .def_253 .def_282)))
(let ((.def_167 (* 2.0 .def_129)))
(let ((.def_208 (* (- 1.0) .def_167)))
(let ((.def_209 (* m.delta__AT0 .def_208)))
(let ((.def_210 (* 50.0 .def_209)))
(let ((.def_215 (+ .def_172 .def_210)))
(let ((.def_216 (+ .def_170 .def_215)))
(let ((.def_217 (+ .def_176 .def_216)))
(let ((.def_218 (+ .def_179 .def_217)))
(let ((.def_219 (<= 0.0 .def_218)))
(let ((.def_221 (and .def_219 .def_220)))
(let ((.def_222 (and .def_206 .def_221)))
(let ((.def_168 (* m.delta__AT0 .def_167)))
(let ((.def_169 (* (- 50.0) .def_168)))
(let ((.def_181 (+ .def_172 .def_169)))
(let ((.def_182 (+ .def_170 .def_181)))
(let ((.def_183 (+ .def_176 .def_182)))
(let ((.def_184 (+ .def_179 .def_183)))
(let ((.def_185 (<= .def_184 0.0 )))
(let ((.def_195 (and .def_185 .def_194)))
(let ((.def_207 (and .def_195 .def_206)))
(let ((.def_223 (or .def_207 .def_222)))
(let ((.def_146 (* m.delta__AT0 .def_145)))
(let ((.def_147 (* (- 25.0) .def_146)))
(let ((.def_142 (* m.delta__AT0 .def_141)))
(let ((.def_143 (* (- 50.0) .def_142)))
(let ((.def_158 (+ .def_143 .def_147)))
(let ((.def_136 (* m.delta__AT0 .def_135)))
(let ((.def_139 (* (- 25.0) .def_136)))
(let ((.def_159 (+ .def_139 .def_158)))
(let ((.def_130 (* .def_61 .def_129)))
(let ((.def_133 (* (- 50.0) .def_130)))
(let ((.def_160 (+ .def_133 .def_159)))
(let ((.def_161 (+ .def_153 .def_160)))
(let ((.def_162 (+ .def_151 .def_161)))
(let ((.def_163 (+ .def_149 .def_162)))
(let ((.def_164 (+ .def_156 .def_163)))
(let ((.def_165 (<= .def_164 0.0 )))
(let ((.def_127 (<= .def_126 0.0 )))
(let ((.def_166 (and .def_127 .def_165)))
(let ((.def_224 (and .def_166 .def_223)))
(let ((.def_284 (or .def_224 .def_283)))
(let ((.def_102 (* (- 20.0) m.speed_x__AT0)))
(let ((.def_103 (* m.delta__AT0 .def_102)))
(let ((.def_104 (* (- 200.0) .def_103)))
(let ((.def_97 (* m.delta__AT0 .def_96)))
(let ((.def_98 (* (- 200.0) .def_97)))
(let ((.def_109 (+ .def_98 .def_104)))
(let ((.def_93 (* .def_61 .def_92)))
(let ((.def_94 (* (- 100.0) .def_93)))
(let ((.def_110 (+ .def_94 .def_109)))
(let ((.def_87 (* m.delta__AT0 .def_86)))
(let ((.def_88 (* (- 200.0) .def_87)))
(let ((.def_111 (+ .def_88 .def_110)))
(let ((.def_83 (* .def_61 .def_82)))
(let ((.def_84 (* (- 200.0) .def_83)))
(let ((.def_112 (+ .def_84 .def_111)))
(let ((.def_78 (* .def_61 .def_77)))
(let ((.def_80 (* (- 100.0) .def_78)))
(let ((.def_113 (+ .def_80 .def_112)))
(let ((.def_72 (* .def_62 .def_71)))
(let ((.def_75 (* (- 200.0) .def_72)))
(let ((.def_114 (+ .def_75 .def_113)))
(let ((.def_63 (* m.delta__AT0 .def_62)))
(let ((.def_66 (* (- 2401.0) .def_63)))
(let ((.def_115 (+ .def_66 .def_114)))
(let ((.def_53 (* m.x__AT0 m.x__AT0)))
(let ((.def_100 (* (- 100.0) .def_53)))
(let ((.def_116 (+ .def_100 .def_115)))
(let ((.def_31 (* m.y__AT0 m.y__AT0)))
(let ((.def_90 (* (- 100.0) .def_31)))
(let ((.def_117 (+ .def_90 .def_116)))
(let ((.def_107 (* 4000.0 m.x__AT0)))
(let ((.def_118 (+ .def_107 .def_117)))
(let ((.def_119 (<= .def_118 0.0 )))
(let ((.def_54 (* (- 1.0) .def_53)))
(let ((.def_52 (* (- 1.0) .def_31)))
(let ((.def_55 (+ .def_52 .def_54)))
(let ((.def_57 (* 40.0 m.x__AT0)))
(let ((.def_59 (+ .def_57 .def_55)))
(let ((.def_60 (<= .def_59 0.0 )))
(let ((.def_120 (and .def_60 .def_119)))
(let ((.def_285 (and .def_120 .def_284)))
(let ((.def_296 (and .def_285 .def_295)))
(let ((.def_300 (and .def_296 .def_299)))
(let ((.def_46 (* m.speed_x__AT0 m.delta__AT0)))
(let ((.def_47 (+ m.x__AT0 .def_46)))
(let ((.def_48 (<= 0.0 .def_47)))
(let ((.def_35 (<= 0.0 m.x__AT0)))
(let ((.def_49 (and .def_35 .def_48)))
(let ((.def_301 (and .def_49 .def_300)))
(let ((.def_40 (and .def_38 .def_39)))
(let ((.def_29 (+ m.x__AT0 (- 20.0) )))
(let ((.def_30 (* .def_29 .def_29)))
(let ((.def_32 (+ .def_30 .def_31)))
(let ((.def_34 (<= 400.0 .def_32)))
(let ((.def_36 (and .def_34 .def_35)))
(let ((.def_41 (and .def_36 .def_40)))
(let ((.def_26 (not m.EVENT.0__AT0)))
(let ((.def_24 (not m.EVENT.1__AT0)))
(let ((.def_27 (or .def_24 .def_26)))
(let ((.def_42 (and .def_27 .def_41)))
(let ((.def_18 (<= 0.0 m.speed_x__AT0)))
(let ((.def_15 (= m.y__AT0 0.0 )))
(let ((.def_12 (= m.x__AT0 0.0 )))
(let ((.def_9 (= m.time__AT0 0.0 )))
(let ((.def_11 (and .def_9 m.event_is_timed__AT0)))
(let ((.def_13 (and .def_11 .def_12)))
(let ((.def_16 (and .def_13 .def_15)))
(let ((.def_19 (and .def_16 .def_18)))
(let ((.def_22 (and .def_19 .def_21)))
(let ((.def_43 (and .def_22 .def_42)))
(let ((.def_5 (<= m.x__AT0 20.0 )))
(let ((.def_6 (not .def_5)))
(let ((.def_44 (and .def_6 .def_43)))
(let ((.def_302 (and .def_44 .def_301)))
.def_302))))))))))))))))))))))))))))))))))))))))))))))))))))))))))))))))))))))))))))))))))))))))))))))))))))))))))))))))))))))))))))))))))))))))))))))))))))))))))))))))))))))))))))))))))))))))))))))))))))))))))))))))))))))))
(check-sat)
(exit)
